52
72
43
59
0
52
40
52
77
61
39
0
66
70
0
0
41
56
69
53
41
101
27
38
60
146
57
61
48
52
77
57
74
0
49
65
57
61
40
70
69
42
86
103
47
98
50
35
78
33
50
0
64
51
49
45
61
50
64
82
44
54
77
43
67
41
72
94
0
71
43
39
49
48
63
0
41
58
39
36
65
0
76
37
60
44
0
34
55
0
56
57
104
53
59
59
64
38
38
42
